(set-info :smt-lib-version 2.6)
(set-logic QF_S)
(set-info :source |
Generated by: Oliver Markgraf, Hongjian Jiang, Daniel Stan, Anthony W. Lin, Philipp Ruemmer
Generated on: 2025-04-08
Application: Using String Solvers to solve RMC problems encoded as CHC over Strings
Target solver: cvc5, OSTRICH, Z3, Z3alpha, Z3-noodler
Time limit: 60.0
Benchmarks are extracted by running HornStr https://arg-git.informatik.uni-kl.de/pub/string-chc-lib on all benchmarks
provided in the repository and gathering the string queries sent to the string solvers.
|)
(set-info :license "https://creativecommons.org/licenses/by/4.0/")
(set-info :category "industrial")
(declare-fun Y () String)
(assert (let ((a!1 (re.* (re.union (re.union (str.to_re "b") (str.to_re "n"))
                           (str.to_re "r")))))
  (str.in_re Y a!1)))
(declare-fun X () String)
(declare-fun A () String)
(declare-fun B () String)
(assert (and true
     (= X (str.++ A "rb" B))
     (= Y (str.++ A "br" B))
     (str.in_re A (re.* (str.to_re "n")))
     (str.in_re B (re.* (str.to_re "n")))))
(push 1)
(assert (= X "rnb"))
(set-info :status unknown)
(check-sat)
(pop 1)
(push 1)
(assert (= X "rnnnb"))
(set-info :status unknown)
(check-sat)
(pop 1)
(push 1)
(assert (= X "nrnbn"))
(set-info :status unknown)
(check-sat)
(pop 1)
(push 1)
(assert (= X "rnnnnnb"))
(set-info :status unknown)
(check-sat)
(pop 1)
(push 1)
(assert (= X "nrnnnbn"))
(set-info :status unknown)
(check-sat)
(pop 1)
(push 1)
(assert (= X "nnrnbnn"))
(set-info :status unknown)
(check-sat)
(pop 1)
(push 1)
(assert (= X "rnnnnnnnb"))
(set-info :status unknown)
(check-sat)
(pop 1)
(push 1)
(assert (= X "nrnnnnnbn"))
(set-info :status unknown)
(check-sat)
(pop 1)
(push 1)
(assert (= X "nnrnnnbnn"))
(set-info :status unknown)
(check-sat)
(pop 1)
(push 1)
(assert (= X "nnnrnbnnn"))
(set-info :status unknown)
(check-sat)
(pop 1)
(exit)
